Version identifier: 22.1.0.0 | 2022-03-09 | 1a383f8ce
CPXPARAM_Threads                                 1
CPXPARAM_MIP_Strategy_VariableSelect             3
CPXPARAM_TimeLimit                               599.99998733999996
1 of 1 MIP starts provided solutions.
MIP start 'm1' defined initial solution with objective 1.0000.
Tried aggregator 1 time.
MIP Presolve eliminated 10 rows and 0 columns.
MIP Presolve modified 4 coefficients.
Reduced MIP has 2109 rows, 5700 columns, and 81414 nonzeros.
Reduced MIP has 5700 binaries, 0 generals, 0 SOSs, and 0 indicators.
Presolve time = 0.05 sec. (42.53 ticks)
Probing time = 0.00 sec. (4.27 ticks)
Tried aggregator 1 time.
Detecting symmetries...
MIP Presolve eliminated 1 rows and 0 columns.
Reduced MIP has 2108 rows, 5700 columns, and 81394 nonzeros.
Reduced MIP has 5700 binaries, 0 generals, 0 SOSs, and 0 indicators.
Presolve time = 0.06 sec. (46.52 ticks)
Probing time = 0.00 sec. (4.27 ticks)
Clique table members: 1193.
MIP emphasis: balance optimality and feasibility.
MIP search method: dynamic search.
Parallel mode: none, using 1 thread.
Root relaxation solution time = 1.45 sec. (1572.33 ticks)

        Nodes                                         Cuts/
   Node  Left     Objective  IInf  Best Integer    Best Bound    ItCnt     Gap

*     0+    0                            1.0000     5700.0000              --- 
      0     0      300.0000  1290        1.0000      300.0000     4880     --- 
      0     0      300.0000  1200        1.0000      Cuts: 21    10690     --- 
      0     0      300.0000  1264        1.0000      Cuts: 27    16559     --- 
*     0+    0                          172.0000      300.0000            74.42%
      0     0      300.0000  1131      172.0000      Cuts: 13    23093   74.42%
*     0+    0                          192.0000      300.0000            56.25%
      0     0        cutoff            192.0000      300.0000    23093   56.25%
      0     0      300.0000  1182      192.0000      Cuts: 22    29319   56.25%
Heuristic still looking.
*     0+    0                          240.0000      300.0000            25.00%
*     0+    0                          257.0000      300.0000            16.73%
*     0+    0                          258.0000      300.0000            16.28%
      0     0        cutoff            258.0000      300.0000    29319   16.28%
Detecting symmetries...
      0     2      300.0000   875      258.0000      300.0000    29319   16.28%
Elapsed time = 82.44 sec. (90207.78 ticks, tree = 0.01 MB, solutions = 6)
      1     1        cutoff            258.0000      300.0000    33445   16.28%
      2     2      300.0000  1192      258.0000      300.0000    39946   16.28%
      3     3      300.0000  1192      258.0000      300.0000    39995   16.28%
      4     4      300.0000  1189      258.0000      300.0000    46123   16.28%
      5     5      300.0000  1107      258.0000      300.0000    60756   16.28%
      6     6      300.0000  1109      258.0000      300.0000    60903   16.28%
      7     7      300.0000   974      258.0000      300.0000    77002   16.28%
      8     7      299.8280  1110      258.0000      300.0000    79428   16.28%
      9     8      300.0000   974      258.0000      300.0000    79432   16.28%
     12    11      300.0000   998      258.0000      300.0000    85953   16.28%
Elapsed time = 106.68 sec. (116400.31 ticks, tree = 0.04 MB, solutions = 6)
     13    11      299.8894  1067      258.0000      300.0000   101689   16.28%
     14    12      300.0000   945      258.0000      300.0000   104484   16.28%
     15    13      300.0000   963      258.0000      300.0000   111764   16.28%
     17    15      300.0000   926      258.0000      300.0000   113752   16.28%
     18    16      300.0000   926      258.0000      300.0000   128082   16.28%
     20    18      300.0000   961      258.0000      300.0000   134436   16.28%
     21    19      299.8802   963      258.0000      300.0000   137471   16.28%
     23    21      300.0000   995      258.0000      300.0000   140069   16.28%
     25    23      300.0000  1001      258.0000      300.0000   143365   16.28%
     26    24      300.0000  1015      258.0000      300.0000   149377   16.28%
Elapsed time = 128.51 sec. (139842.61 ticks, tree = 0.08 MB, solutions = 6)
     27    24      300.0000   946      258.0000      300.0000   158519   16.28%
     29    25      299.8771  1074      258.0000      300.0000   174152   16.28%
     30    26      300.0000   911      258.0000      300.0000   183302   16.28%
     31    27      300.0000  1028      258.0000      300.0000   196583   16.28%
     32    28      300.0000   970      258.0000      300.0000   205125   16.28%
     33    29      299.9425  1078      258.0000      300.0000   206760   16.28%
     36    32      300.0000  1003      258.0000      300.0000   211168   16.28%
     38    34      299.8693  1080      258.0000      300.0000   221561   16.28%
     40    36      299.0417  1096      258.0000      300.0000   223719   16.28%
     41    37      300.0000  1019      258.0000      300.0000   229716   16.28%
Elapsed time = 153.10 sec. (164717.30 ticks, tree = 0.12 MB, solutions = 6)
     43    39      299.9864  1121      258.0000      300.0000   232930   16.28%
     45    41      300.0000  1033      258.0000      300.0000   244723   16.28%
     46    42      300.0000   949      258.0000      300.0000   253708   16.28%
     48    44      299.7994  1045      258.0000      300.0000   256894   16.28%
     49    45      300.0000   904      258.0000      300.0000   262468   16.28%
     51    47      299.0417  1146      258.0000      300.0000   269967   16.28%
     53    49      299.9263  1118      258.0000      300.0000   287033   16.28%
     55    51      300.0000   937      258.0000      300.0000   289794   16.28%
     57    53      299.8649  1028      258.0000      300.0000   292354   16.28%
     58    54      300.0000   871      258.0000      300.0000   302452   16.28%
Elapsed time = 172.67 sec. (185530.21 ticks, tree = 0.16 MB, solutions = 6)
     60    56      299.6771  1040      258.0000      300.0000   318334   16.28%
     62    58      300.0000   886      258.0000      300.0000   320849   16.28%
     64    60      299.8149  1039      258.0000      300.0000   324309   16.28%
     66    62      300.0000   780      258.0000      300.0000   333549   16.28%
     67    62      299.8402  1111      258.0000      300.0000   351309   16.28%
     68    63      300.0000   779      258.0000      300.0000   352946   16.28%
     69    64      299.9646  1069      258.0000      300.0000   356652   16.28%
     70    65      300.0000   900      258.0000      300.0000   369311   16.28%
     71    66      300.0000   814      258.0000      300.0000   385317   16.28%
     73    68      299.8570  1113      258.0000      300.0000   399593   16.28%
Elapsed time = 199.65 sec. (213652.93 ticks, tree = 0.30 MB, solutions = 6)
     74    69      299.8817  1074      258.0000      300.0000   402887   16.28%
     75    70      300.0000   882      258.0000      300.0000   409667   16.28%
     77    70      300.0000   879      258.0000      300.0000   415958   16.28%
     79    71      299.8082  1075      258.0000      300.0000   430418   16.28%
     81    73      299.8731  1101      258.0000      300.0000   433771   16.28%
     83    75      299.9042  1184      258.0000      300.0000   442727   16.28%
     84    76      300.0000   950      258.0000      300.0000   444189   16.28%
     85    76      299.9389  1111      258.0000      300.0000   482993   16.28%
     87    78      299.9051  1026      258.0000      300.0000   485327   16.28%
     89    80      300.0000   845      258.0000      300.0000   488575   16.28%
Elapsed time = 222.17 sec. (236955.44 ticks, tree = 0.52 MB, solutions = 6)
     90    81      299.9181  1085      258.0000      300.0000   491198   16.28%
     92    83      300.0000   846      258.0000      300.0000   492346   16.28%
     94    85      299.8401   997      258.0000      300.0000   497403   16.28%
     95    86      299.8784  1086      258.0000      300.0000   500333   16.28%
     96    87      300.0000   790      258.0000      300.0000   507916   16.28%
     97    88      299.8034  1195      258.0000      300.0000   515109   16.28%
     98    89      300.0000   825      258.0000      300.0000   526095   16.28%
     99    90      300.0000   849      258.0000      300.0000   528030   16.28%
    100    91      299.9042  1125      258.0000      300.0000   531357   16.28%
    102    93      299.9281  1077      258.0000      300.0000   534477   16.28%
Elapsed time = 248.22 sec. (264618.22 ticks, tree = 0.73 MB, solutions = 6)
    104    93      300.0000   850      258.0000      300.0000   536306   16.28%
    105    94      299.8106  1031      258.0000      300.0000   539875   16.28%
    107    96      299.8447  1027      258.0000      300.0000   544607   16.28%
    109    97      300.0000   986      258.0000      300.0000   545919   16.28%
    110    98      299.8631   987      258.0000      300.0000   548363   16.28%
    112   100      300.0000   867      258.0000      300.0000   550924   16.28%
    113   101      299.8200  1040      258.0000      300.0000   554120   16.28%
    114   102      299.8520  1055      258.0000      300.0000   556725   16.28%
    116   104      299.8520  1073      258.0000      300.0000   561204   16.28%
    118   106      299.8583  1038      258.0000      300.0000   564721   16.28%
Elapsed time = 295.21 sec. (314615.03 ticks, tree = 0.96 MB, solutions = 6)
    120   108      300.0000   890      258.0000      300.0000   566001   16.28%
    121   109      299.8583  1039      258.0000      300.0000   570197   16.28%
    122   110      300.0000   849      258.0000      300.0000   571328   16.28%
    124   112      299.8366  1032      258.0000      300.0000   575649   16.28%
    126   113      299.7604  1196      258.0000      300.0000   584107   16.28%
    128   115      299.8935  1073      258.0000      300.0000   585785   16.28%
    130   117      300.0000   834      258.0000      300.0000   588522   16.28%
    131   118      299.8637  1070      258.0000      300.0000   590440   16.28%
    133   120      299.9012  1005      258.0000      300.0000   593186   16.28%
    135   122      299.8651  1087      258.0000      300.0000   597723   16.28%
Elapsed time = 312.06 sec. (333998.30 ticks, tree = 1.28 MB, solutions = 6)
    136   123      299.8778  1092      258.0000      300.0000   601471   16.28%
    138   125      299.8104  1043      258.0000      300.0000   605272   16.28%
    140   127      300.0000   842      258.0000      300.0000   606538   16.28%
    141   127      299.8770  1011      258.0000      300.0000   610874   16.28%
    143   129      300.0000   834      258.0000      300.0000   613565   16.28%
    144   129      299.7745  1096      258.0000      300.0000   619284   16.28%
    146   131      300.0000   795      258.0000      300.0000   630635   16.28%
    147   132      300.0000   841      258.0000      300.0000   632521   16.28%
    148   133      299.8680  1096      258.0000      300.0000   636920   16.28%
    150   135      300.0000   738      258.0000      300.0000   648812   16.28%
Elapsed time = 333.55 sec. (358544.65 ticks, tree = 1.50 MB, solutions = 6)
    154   139      299.8104   981      258.0000      300.0000   656951   16.28%
    157   142      299.9021  1050      258.0000      300.0000   664533   16.28%
    159   144      299.0417  1091      258.0000      300.0000   687084   16.28%
    164   149      299.8462   981      258.0000      300.0000   696541   16.28%
    168   153      299.8642  1081      258.0000      300.0000   704525   16.28%
    172   157      299.8867  1048      258.0000      300.0000   713099   16.28%
    176   160      300.0000   717      258.0000      300.0000   718924   16.28%
    178   162      300.0000   793      258.0000      300.0000   739925   16.28%
    182   166      299.9011  1007      258.0000      300.0000   749449   16.28%
    187   171      299.8631  1114      258.0000      300.0000   757407   16.28%
Elapsed time = 381.23 sec. (412937.10 ticks, tree = 2.13 MB, solutions = 6)
    191   175      299.8675  1127      258.0000      300.0000   765593   16.28%
    194   178      299.8606  1050      258.0000      300.0000   773414   16.28%
    197   181      300.0000   760      258.0000      300.0000   781999   16.28%
    200   184      300.0000   771      258.0000      300.0000   795399   16.28%
    203   187      299.8783  1063      258.0000      300.0000   803697   16.28%
    206   190      300.0000   790      258.0000      300.0000   812749   16.28%
    207   191      300.0000   735      258.0000      300.0000   824095   16.28%
    209   192      300.0000   798      258.0000      300.0000   837601   16.28%
    214   195      299.7320  1044      258.0000      300.0000   848570   16.28%
    217   198      300.0000   903      258.0000      300.0000   857335   16.28%
Elapsed time = 422.45 sec. (460070.32 ticks, tree = 2.64 MB, solutions = 6)
    221   202      289.0000   853      258.0000      300.0000   865042   16.28%
    225   206      300.0000   713      258.0000      300.0000   871656   16.28%
    228   209      299.8693  1066      258.0000      300.0000   881772   16.28%
    231   212      300.0000   713      258.0000      300.0000   889460   16.28%
    234   215      300.0000   863      258.0000      300.0000   904314   16.28%
    238   218      300.0000   835      258.0000      300.0000   912348   16.28%
    241   221      299.5734   989      258.0000      300.0000   922405   16.28%
    245   225      300.0000   855      258.0000      300.0000   930292   16.28%
    249   229      300.0000   818      258.0000      300.0000   938869   16.28%
    253   233      300.0000   835      258.0000      300.0000   946216   16.28%
Elapsed time = 461.56 sec. (506200.46 ticks, tree = 3.27 MB, solutions = 6)
    257   237      299.9390  1059      258.0000      300.0000   955343   16.28%
    260   240      299.8122  1046      258.0000      300.0000   962207   16.28%
    261   241      300.0000   729      258.0000      300.0000   973833   16.28%
    264   244      300.0000   801      258.0000      300.0000   983313   16.28%
    267   247      300.0000   763      258.0000      300.0000   991260   16.28%
    269   249      299.8801   946      258.0000      300.0000  1001461   16.28%
    273   253      300.0000   730      258.0000      300.0000  1010617   16.28%
    276   255      299.6484   981      258.0000      300.0000  1027161   16.28%
    278   257      300.0000   720      258.0000      300.0000  1038078   16.28%
    280   259      300.0000   712      258.0000      300.0000  1047256   16.28%
Elapsed time = 518.15 sec. (567153.12 ticks, tree = 3.79 MB, solutions = 6)
    283   262      300.0000   704      258.0000      300.0000  1064117   16.28%
    285   264      299.9065   914      258.0000      300.0000  1074375   16.28%
    289   268      300.0000   681      258.0000      300.0000  1081825   16.28%
    292   271      300.0000   687      258.0000      300.0000  1090556   16.28%
    295   273      299.8605  1056      258.0000      300.0000  1113662   16.28%
    296   274      300.0000   704      258.0000      300.0000  1124588   16.28%
Starting limited solution polishing.
*   300+  276                          273.0000      300.0000             9.89%
    300   278      299.7500   863      273.0000      300.0000  1131454    9.89%
    302   280      299.6506  1102      273.0000      300.0000  1143874    9.89%
    303   281      300.0000   672      273.0000      300.0000  1160371    9.89%
    308   286      299.6932   815      273.0000      300.0000  1182485    9.89%
Elapsed time = 569.74 sec. (622249.15 ticks, tree = 4.26 MB, solutions = 7)
    316   294      299.8597   996      273.0000      300.0000  1196892    9.89%
    320   298      299.9024   823      273.0000      300.0000  1208899    9.89%
    326   304      299.8750   806      273.0000      300.0000  1220809    9.89%
    330   308      299.6604   872      273.0000      300.0000  1238151    9.89%

Clique cuts applied:  9
Zero-half cuts applied:  7

Root node processing (before b&c):
  Real time             =   82.39 sec. (90144.33 ticks)
Sequential b&c:
  Real time             =  517.62 sec. (563051.17 ticks)
                          ------------
Total (root+branch&cut) =  600.01 sec. (653195.50 ticks)
Primal:	273
Dual:	300
Status:	Feasible
Time:	599.98
Sequence:
	18
	6
	10
	7
	15
	0
	5
	10
	3
	15
	0
	8
	10
	4
	10
	8
	15
	0
	7
	10
	0
	17
	5
	10
	7
	15
	1
	10
	5
	15
	2
	5
	4
	10
	0
	15
	5
	10
	7
	15
	0
	15
	8
	10
	4
	10
	8
	10
	5
	10
	7
	10
	6
	15
	2
	15
	5
	10
	7
	6
	10
	5
	15
	2
	15
	1
	15
	7
	10
	0
	12
	5
	15
	2
	5
	15
	0
	4
	10
	8
	10
	5
	7
	11
	5
	15
	0
	7
	15
	1
	15
	5
	2
	15
	0
	15
	8
	10
	4
	10
	8
	15
	0
	15
	4
	10
	8
	10
	5
	7
	10
	5
	10
	6
	7
	10
	5
	15
	3
	15
	5
	10
	5
	2
	15
	4
	13
	5
	15
	2
	15
	4
	13
	5
	15
	2
	10
	6
	15
	2
	0
	15
	0
	2
	10
	5
	12
	5
	10
	7
	15
	0
	15
	5
	3
	15
	0
	15
	5
	3
	15
	0
	15
	5
	11
	7
	15
	0
	15
	4
	10
	5
	15
	0
	7
	15
	1
	15
	0
	7
	15
	0
	10
	6
	15
	2
	15
	5
	10
	5
	15
	3
	15
	0
	8
	10
	4
	10
	5
	7
	10
	4
	13
	0
	15
	7
	10
	5
	5
	2
	10
	4
	18
	0
	10
	7
	15
	0
	15
	7
	10
	5
	12
	0
	15
	7
	10
	5
	12
	5
	15
	2
	15
	6
	10
	7
	15
	0
	15
	6
	10
	7
	15
	0
	4
	10
	5
	10
	0
	15
	7
	10
	0
	18
	4
	10
	7
	0
	15
	8
	10
	4
	5
	2
	10
	5
	15
	0
	7
	15
	0
	11
	0
